p cnf 529 1884
1 0
2 0
3 0
4 0
5 0
6 0
-7 0
8 0
9 0
10 0
11 0
12 0
13 0
14 0
15 0
16 0
17 0
18 0
19 0
20 0
21 0
22 0
23 24 25 26 0
-23 -24 0
-23 -25 0
-23 -26 0
-24 -25 0
-24 -26 0
-25 -26 0
-1 27 -28 0
1 -27 -28 0
-1 -27 28 0
1 27 28 0
-23 -28 0
1 -29 -30 0
-1 29 -30 0
30 -1 -29 0
30 1 29 0
-24 30 0
-27 31 0
-29 31 0
27 29 -31 0
1 -31 -32 0
-1 31 -32 0
-1 -31 32 0
1 31 32 0
-25 32 0
27 33 0
29 33 0
-29 -27 -33 0
-1 33 -34 0
1 -33 -34 0
34 -33 -1 0
1 33 34 0
-26 -34 0
29 -35 -36 0
35 -29 -36 0
-29 -35 36 0
35 29 36 0
-23 -36 0
35 -27 -37 0
27 -35 -37 0
37 -35 -27 0
37 35 27 0
-24 37 0
35 -31 -38 0
-35 31 -38 0
-35 -31 38 0
35 31 38 0
-25 38 0
29 39 0
27 39 0
-29 -27 -39 0
-35 39 -40 0
35 -39 -40 0
40 -39 -35 0
35 39 40 0
-26 -40 0
-2 41 -42 0
2 -41 -42 0
-2 -41 42 0
2 41 42 0
-23 -42 0
2 -43 -44 0
-2 43 -44 0
44 -2 -43 0
44 2 43 0
-24 44 0
-41 45 0
-43 45 0
-46 45 0
-47 45 0
-48 45 0
-49 45 0
-50 45 0
51 0
2 -45 -52 0
-2 45 -52 0
-2 -45 52 0
2 45 52 0
-25 52 0
41 53 0
43 53 0
46 53 0
47 53 0
48 53 0
49 53 0
50 53 0
-54 0
-2 53 -55 0
2 -53 -55 0
55 -53 -2 0
2 53 55 0
-26 -55 0
-56 43 -57 0
56 -43 -57 0
-56 -43 57 0
56 43 57 0
-23 -57 0
56 -46 -58 0
-56 46 -58 0
58 -56 -46 0
58 56 46 0
-24 58 0
-43 59 0
-46 59 0
-47 59 0
-48 59 0
-49 59 0
-50 59 0
43 46 47 48 49 50 -59 0
56 -59 -60 0
-56 59 -60 0
-56 -59 60 0
56 59 60 0
-25 60 0
43 61 0
46 61 0
47 61 0
48 61 0
49 61 0
50 61 0
-62 0
-56 61 -63 0
56 -61 -63 0
63 -61 -56 0
56 61 63 0
-26 -63 0
-64 46 -65 0
64 -46 -65 0
-64 -46 65 0
64 46 65 0
-23 -65 0
64 -47 -66 0
-64 47 -66 0
66 -64 -47 0
66 64 47 0
-24 66 0
-46 67 0
-47 67 0
-48 67 0
-49 67 0
-50 67 0
46 47 48 49 50 -67 0
64 -67 -68 0
-64 67 -68 0
-64 -67 68 0
64 67 68 0
-25 68 0
46 69 0
47 69 0
48 69 0
49 69 0
50 69 0
-70 0
-64 69 -71 0
64 -69 -71 0
71 -69 -64 0
64 69 71 0
-26 -71 0
-72 47 -73 0
72 -47 -73 0
-72 -47 73 0
72 47 73 0
-23 -73 0
72 -48 -74 0
-72 48 -74 0
74 -72 -48 0
74 72 48 0
-24 74 0
-47 75 0
-48 75 0
-49 75 0
-50 75 0
47 48 49 50 -75 0
72 -75 -76 0
-72 75 -76 0
-72 -75 76 0
72 75 76 0
-25 76 0
47 77 0
48 77 0
49 77 0
50 77 0
-78 0
-72 77 -79 0
72 -77 -79 0
79 -77 -72 0
72 77 79 0
-26 -79 0
-80 48 -81 0
80 -48 -81 0
-80 -48 81 0
80 48 81 0
-23 -81 0
80 -49 -82 0
-80 49 -82 0
82 -80 -49 0
82 80 49 0
-24 82 0
80 -75 -83 0
-80 75 -83 0
-80 -75 83 0
80 75 83 0
-25 83 0
-80 77 -84 0
80 -77 -84 0
84 -77 -80 0
80 77 84 0
-26 -84 0
-85 49 -86 0
85 -49 -86 0
-85 -49 86 0
85 49 86 0
-23 -86 0
85 -50 -87 0
-85 50 -87 0
87 -85 -50 0
87 85 50 0
-24 87 0
85 -75 -88 0
-85 75 -88 0
-85 -75 88 0
85 75 88 0
-25 88 0
-85 77 -89 0
85 -77 -89 0
89 -77 -85 0
85 77 89 0
-26 -89 0
-90 50 -91 0
90 -50 -91 0
-90 -50 91 0
90 50 91 0
-23 -91 0
90 -47 -92 0
-90 47 -92 0
92 -90 -47 0
92 90 47 0
-24 92 0
90 -75 -93 0
-90 75 -93 0
-90 -75 93 0
90 75 93 0
-25 93 0
-90 77 -94 0
90 -77 -94 0
94 -77 -90 0
90 77 94 0
-26 -94 0
-3 95 -96 0
3 -95 -96 0
-3 -95 96 0
3 95 96 0
-23 -96 0
3 -97 -98 0
-3 97 -98 0
98 -3 -97 0
98 3 97 0
-24 98 0
-95 99 0
-97 99 0
-100 99 0
-101 99 0
-102 99 0
-103 99 0
-104 99 0
105 0
3 -99 -106 0
-3 99 -106 0
-3 -99 106 0
3 99 106 0
-25 106 0
95 107 0
97 107 0
100 107 0
101 107 0
102 107 0
103 107 0
104 107 0
-108 0
-3 107 -109 0
3 -107 -109 0
109 -107 -3 0
3 107 109 0
-26 -109 0
-110 97 -111 0
110 -97 -111 0
-110 -97 111 0
110 97 111 0
-23 -111 0
110 -100 -112 0
-110 100 -112 0
112 -110 -100 0
112 110 100 0
-24 112 0
-97 113 0
-100 113 0
-101 113 0
-102 113 0
-103 113 0
-104 113 0
114 0
110 -113 -115 0
-110 113 -115 0
-110 -113 115 0
110 113 115 0
-25 115 0
97 116 0
100 116 0
101 116 0
102 116 0
103 116 0
104 116 0
-117 0
-110 116 -118 0
110 -116 -118 0
118 -116 -110 0
110 116 118 0
-26 -118 0
-4 100 -119 0
4 -100 -119 0
-4 -100 119 0
4 100 119 0
-23 -119 0
4 -101 -120 0
-4 101 -120 0
120 -4 -101 0
120 4 101 0
-24 120 0
-100 121 0
-101 121 0
-102 121 0
-103 121 0
-104 121 0
100 101 102 103 104 -121 0
4 -121 -122 0
-4 121 -122 0
-4 -121 122 0
4 121 122 0
-25 122 0
100 123 0
101 123 0
102 123 0
103 123 0
104 123 0
-124 0
-4 123 -125 0
4 -123 -125 0
125 -123 -4 0
4 123 125 0
-26 -125 0
-126 101 -127 0
126 -101 -127 0
-126 -101 127 0
126 101 127 0
-23 -127 0
126 -102 -128 0
-126 102 -128 0
128 -126 -102 0
128 126 102 0
-24 128 0
-101 129 0
-102 129 0
-103 129 0
-104 129 0
101 102 103 104 -129 0
126 -129 -130 0
-126 129 -130 0
-126 -129 130 0
126 129 130 0
-25 130 0
101 131 0
102 131 0
103 131 0
104 131 0
-132 0
-126 131 -133 0
126 -131 -133 0
133 -131 -126 0
126 131 133 0
-26 -133 0
-134 102 -135 0
134 -102 -135 0
-134 -102 135 0
134 102 135 0
-23 -135 0
134 -103 -136 0
-134 103 -136 0
136 -134 -103 0
136 134 103 0
-24 136 0
134 -129 -137 0
-134 129 -137 0
-134 -129 137 0
134 129 137 0
-25 137 0
-134 131 -138 0
134 -131 -138 0
138 -131 -134 0
134 131 138 0
-26 -138 0
-139 103 -140 0
139 -103 -140 0
-139 -103 140 0
139 103 140 0
-23 -140 0
139 -104 -141 0
-139 104 -141 0
141 -139 -104 0
141 139 104 0
-24 141 0
139 -129 -142 0
-139 129 -142 0
-139 -129 142 0
139 129 142 0
-25 142 0
-139 131 -143 0
139 -131 -143 0
143 -131 -139 0
139 131 143 0
-26 -143 0
-144 104 -145 0
144 -104 -145 0
-144 -104 145 0
144 104 145 0
-23 -145 0
144 -101 -146 0
-144 101 -146 0
146 -144 -101 0
146 144 101 0
-24 146 0
144 -129 -147 0
-144 129 -147 0
-144 -129 147 0
144 129 147 0
-25 147 0
-144 131 -148 0
144 -131 -148 0
148 -131 -144 0
144 131 148 0
-26 -148 0
-5 149 -150 0
5 -149 -150 0
-5 -149 150 0
5 149 150 0
-23 -150 0
5 -151 -152 0
-5 151 -152 0
152 -5 -151 0
152 5 151 0
-24 152 0
-149 153 0
-151 153 0
-154 153 0
149 151 154 -153 0
5 -153 -155 0
-5 153 -155 0
-5 -153 155 0
5 153 155 0
-25 155 0
149 156 0
151 156 0
154 156 0
-149 -151 -154 -156 0
-5 156 -157 0
5 -156 -157 0
157 -156 -5 0
5 156 157 0
-26 -157 0
-6 151 -158 0
6 -151 -158 0
-6 -151 158 0
6 151 158 0
-23 -158 0
6 -154 -159 0
-6 154 -159 0
159 -6 -154 0
159 6 154 0
-24 159 0
-151 160 0
-154 160 0
151 154 -160 0
6 -160 -161 0
-6 160 -161 0
-6 -160 161 0
6 160 161 0
-25 161 0
151 162 0
154 162 0
-151 -154 -162 0
-6 162 -163 0
6 -162 -163 0
163 -162 -6 0
6 162 163 0
-26 -163 0
-7 154 -164 0
7 -154 -164 0
-7 -154 164 0
7 154 164 0
-23 -164 0
7 -154 -165 0
-7 154 -165 0
165 -7 -154 0
165 7 154 0
-24 165 0
-25 165 0
-26 165 0
-8 166 -167 0
8 -166 -167 0
-8 -166 167 0
8 166 167 0
-23 -167 0
8 -168 -169 0
-8 168 -169 0
169 -8 -168 0
169 8 168 0
-24 169 0
-166 170 0
-168 170 0
-171 170 0
-172 170 0
-173 170 0
166 168 171 172 173 -170 0
8 -170 -174 0
-8 170 -174 0
-8 -170 174 0
8 170 174 0
-25 174 0
166 175 0
168 175 0
171 175 0
172 175 0
173 175 0
-176 0
-8 175 -177 0
8 -175 -177 0
177 -175 -8 0
8 175 177 0
-26 -177 0
-178 168 -179 0
178 -168 -179 0
-178 -168 179 0
178 168 179 0
-23 -179 0
178 -171 -180 0
-178 171 -180 0
180 -178 -171 0
180 178 171 0
-24 180 0
-168 181 0
-171 181 0
-172 181 0
-173 181 0
168 171 172 173 -181 0
178 -181 -182 0
-178 181 -182 0
-178 -181 182 0
178 181 182 0
-25 182 0
168 183 0
171 183 0
172 183 0
173 183 0
-184 0
-178 183 -185 0
178 -183 -185 0
185 -183 -178 0
178 183 185 0
-26 -185 0
-186 171 -187 0
186 -171 -187 0
-186 -171 187 0
186 171 187 0
-23 -187 0
186 -172 -188 0
-186 172 -188 0
188 -186 -172 0
188 186 172 0
-24 188 0
-171 189 0
-172 189 0
-173 189 0
171 172 173 -189 0
186 -189 -190 0
-186 189 -190 0
-186 -189 190 0
186 189 190 0
-25 190 0
171 191 0
172 191 0
173 191 0
-171 -172 -173 -191 0
-186 191 -192 0
186 -191 -192 0
192 -191 -186 0
186 191 192 0
-26 -192 0
-193 172 -194 0
193 -172 -194 0
-193 -172 194 0
193 172 194 0
-23 -194 0
193 -173 -195 0
-193 173 -195 0
195 -193 -173 0
195 193 173 0
-24 195 0
193 -189 -196 0
-193 189 -196 0
-193 -189 196 0
193 189 196 0
-25 196 0
-193 191 -197 0
193 -191 -197 0
197 -191 -193 0
193 191 197 0
-26 -197 0
-198 173 -199 0
198 -173 -199 0
-198 -173 199 0
198 173 199 0
-23 -199 0
198 -171 -200 0
-198 171 -200 0
200 -198 -171 0
200 198 171 0
-24 200 0
198 -189 -201 0
-198 189 -201 0
-198 -189 201 0
198 189 201 0
-25 201 0
-198 191 -202 0
198 -191 -202 0
202 -191 -198 0
198 191 202 0
-26 -202 0
-9 203 -204 0
9 -203 -204 0
-9 -203 204 0
9 203 204 0
-23 -204 0
9 -205 -206 0
-9 205 -206 0
206 -9 -205 0
206 9 205 0
-24 206 0
-27 207 0
-29 207 0
-203 207 0
-205 207 0
-208 207 0
-209 207 0
27 29 203 205 208 209 -207 0
9 -207 -210 0
-9 207 -210 0
-9 -207 210 0
9 207 210 0
-25 210 0
29 211 0
27 211 0
203 211 0
205 211 0
208 211 0
209 211 0
-212 0
-9 211 -213 0
9 -211 -213 0
213 -211 -9 0
9 211 213 0
-26 -213 0
-214 205 -215 0
214 -205 -215 0
-214 -205 215 0
214 205 215 0
-23 -215 0
214 -208 -216 0
-214 208 -216 0
216 -214 -208 0
216 214 208 0
-24 216 0
-27 217 0
-29 217 0
-205 217 0
-208 217 0
-209 217 0
27 29 205 208 209 -217 0
214 -217 -218 0
-214 217 -218 0
-214 -217 218 0
214 217 218 0
-25 218 0
29 219 0
27 219 0
205 219 0
208 219 0
209 219 0
-220 0
-214 219 -221 0
214 -219 -221 0
221 -219 -214 0
214 219 221 0
-26 -221 0
-222 208 -223 0
222 -208 -223 0
-222 -208 223 0
222 208 223 0
-23 -223 0
222 -209 -224 0
-222 209 -224 0
224 -222 -209 0
224 222 209 0
-24 224 0
-27 225 0
-29 225 0
-208 225 0
-209 225 0
27 29 208 209 -225 0
222 -225 -226 0
-222 225 -226 0
-222 -225 226 0
222 225 226 0
-25 226 0
29 227 0
27 227 0
208 227 0
209 227 0
-228 0
-222 227 -229 0
222 -227 -229 0
229 -227 -222 0
222 227 229 0
-26 -229 0
-10 209 -230 0
10 -209 -230 0
-10 -209 230 0
10 209 230 0
-23 -230 0
10 -27 -231 0
27 -10 -231 0
231 -10 -27 0
231 10 27 0
-24 231 0
-27 232 0
-29 232 0
-209 232 0
27 29 209 -232 0
10 -232 -233 0
-10 232 -233 0
-10 -232 233 0
10 232 233 0
-25 233 0
29 234 0
27 234 0
209 234 0
-29 -27 -209 -234 0
-10 234 -235 0
10 -234 -235 0
235 -234 -10 0
10 234 235 0
-26 -235 0
-11 236 -237 0
11 -236 -237 0
-11 -236 237 0
11 236 237 0
-23 -237 0
11 -238 -239 0
-11 238 -239 0
239 -11 -238 0
239 11 238 0
-24 239 0
-171 240 0
-172 240 0
-173 240 0
-236 240 0
-238 240 0
-241 240 0
-242 240 0
243 0
11 -240 -244 0
-11 240 -244 0
-11 -240 244 0
11 240 244 0
-25 244 0
171 245 0
172 245 0
173 245 0
236 245 0
238 245 0
241 245 0
242 245 0
-246 0
-11 245 -247 0
11 -245 -247 0
247 -245 -11 0
11 245 247 0
-26 -247 0
-248 238 -249 0
248 -238 -249 0
-248 -238 249 0
248 238 249 0
-23 -249 0
248 -241 -250 0
-248 241 -250 0
250 -248 -241 0
250 248 241 0
-24 250 0
-171 251 0
-172 251 0
-173 251 0
-238 251 0
-241 251 0
-242 251 0
252 0
248 -251 -253 0
-248 251 -253 0
-248 -251 253 0
248 251 253 0
-25 253 0
171 254 0
172 254 0
173 254 0
238 254 0
241 254 0
242 254 0
-255 0
-248 254 -256 0
248 -254 -256 0
256 -254 -248 0
248 254 256 0
-26 -256 0
-257 241 -258 0
257 -241 -258 0
-257 -241 258 0
257 241 258 0
-23 -258 0
257 -242 -259 0
-257 242 -259 0
259 -257 -242 0
259 257 242 0
-24 259 0
-171 260 0
-172 260 0
-173 260 0
-241 260 0
-242 260 0
171 172 173 241 242 -260 0
257 -260 -261 0
-257 260 -261 0
-257 -260 261 0
257 260 261 0
-25 261 0
171 262 0
172 262 0
173 262 0
241 262 0
242 262 0
-263 0
-257 262 -264 0
257 -262 -264 0
264 -262 -257 0
257 262 264 0
-26 -264 0
-265 242 -266 0
265 -242 -266 0
-265 -242 266 0
265 242 266 0
-23 -266 0
265 -173 -267 0
-265 173 -267 0
267 -265 -173 0
267 265 173 0
-24 267 0
-171 268 0
-172 268 0
-173 268 0
-242 268 0
171 172 173 242 -268 0
265 -268 -269 0
-265 268 -269 0
-265 -268 269 0
265 268 269 0
-25 269 0
171 270 0
172 270 0
173 270 0
242 270 0
-271 0
-265 270 -272 0
265 -270 -272 0
272 -270 -265 0
265 270 272 0
-26 -272 0
-12 273 -274 0
12 -273 -274 0
-12 -273 274 0
12 273 274 0
-23 -274 0
12 -275 -276 0
-12 275 -276 0
276 -12 -275 0
276 12 275 0
-24 276 0
-27 277 0
-29 277 0
-273 277 0
-275 277 0
-278 277 0
27 29 273 275 278 -277 0
12 -277 -279 0
-12 277 -279 0
-12 -277 279 0
12 277 279 0
-25 279 0
29 280 0
27 280 0
273 280 0
275 280 0
278 280 0
-281 0
-12 280 -282 0
12 -280 -282 0
282 -280 -12 0
12 280 282 0
-26 -282 0
-283 275 -284 0
283 -275 -284 0
-283 -275 284 0
283 275 284 0
-23 -284 0
283 -278 -285 0
-283 278 -285 0
285 -283 -278 0
285 283 278 0
-24 285 0
-27 286 0
-29 286 0
-275 286 0
-278 286 0
27 29 275 278 -286 0
283 -286 -287 0
-283 286 -287 0
-283 -286 287 0
283 286 287 0
-25 287 0
29 288 0
27 288 0
275 288 0
278 288 0
-289 0
-283 288 -290 0
283 -288 -290 0
290 -288 -283 0
283 288 290 0
-26 -290 0
-291 278 -292 0
291 -278 -292 0
-291 -278 292 0
291 278 292 0
-23 -292 0
291 -29 -293 0
29 -291 -293 0
293 -291 -29 0
293 291 29 0
-24 293 0
-27 294 0
-29 294 0
-278 294 0
27 29 278 -294 0
291 -294 -295 0
-291 294 -295 0
-291 -294 295 0
291 294 295 0
-25 295 0
29 296 0
27 296 0
278 296 0
-29 -27 -278 -296 0
-291 296 -297 0
291 -296 -297 0
297 -296 -291 0
291 296 297 0
-26 -297 0
-13 298 -299 0
13 -298 -299 0
-13 -298 299 0
13 298 299 0
-23 -299 0
13 -300 -301 0
-13 300 -301 0
301 -13 -300 0
301 13 300 0
-24 301 0
-298 302 0
-300 302 0
-303 302 0
298 300 303 -302 0
13 -302 -304 0
-13 302 -304 0
-13 -302 304 0
13 302 304 0
-25 304 0
298 305 0
300 305 0
303 305 0
-298 -300 -303 -305 0
-13 305 -306 0
13 -305 -306 0
306 -305 -13 0
13 305 306 0
-26 -306 0
-307 300 -308 0
307 -300 -308 0
-307 -300 308 0
307 300 308 0
-23 -308 0
307 -303 -309 0
-307 303 -309 0
309 -307 -303 0
309 307 303 0
-24 309 0
-300 310 0
-303 310 0
300 303 -310 0
307 -310 -311 0
-307 310 -311 0
-307 -310 311 0
307 310 311 0
-25 311 0
300 312 0
303 312 0
-300 -303 -312 0
-307 312 -313 0
307 -312 -313 0
313 -312 -307 0
307 312 313 0
-26 -313 0
-314 303 -315 0
314 -303 -315 0
-314 -303 315 0
314 303 315 0
-23 -315 0
314 -303 -316 0
-314 303 -316 0
316 -314 -303 0
316 314 303 0
-24 316 0
-25 316 0
-26 316 0
-14 317 -318 0
14 -317 -318 0
-14 -317 318 0
14 317 318 0
-23 -318 0
14 -319 -320 0
-14 319 -320 0
320 -14 -319 0
320 14 319 0
-24 320 0
-101 321 0
-102 321 0
-103 321 0
-104 321 0
-317 321 0
-319 321 0
322 0
14 -321 -323 0
-14 321 -323 0
-14 -321 323 0
14 321 323 0
-25 323 0
101 324 0
102 324 0
103 324 0
104 324 0
317 324 0
319 324 0
-325 0
-14 324 -326 0
14 -324 -326 0
326 -324 -14 0
14 324 326 0
-26 -326 0
-327 319 -328 0
327 -319 -328 0
-327 -319 328 0
327 319 328 0
-23 -328 0
327 -104 -329 0
-327 104 -329 0
329 -327 -104 0
329 327 104 0
-24 329 0
-101 330 0
-102 330 0
-103 330 0
-104 330 0
-319 330 0
101 102 103 104 319 -330 0
327 -330 -331 0
-327 330 -331 0
-327 -330 331 0
327 330 331 0
-25 331 0
101 332 0
102 332 0
103 332 0
104 332 0
319 332 0
-333 0
-327 332 -334 0
327 -332 -334 0
334 -332 -327 0
327 332 334 0
-26 -334 0
-15 335 -336 0
15 -335 -336 0
-15 -335 336 0
15 335 336 0
-23 -336 0
15 -337 -338 0
-15 337 -338 0
338 -15 -337 0
338 15 337 0
-24 338 0
-101 339 0
-102 339 0
-103 339 0
-104 339 0
-319 339 0
-335 339 0
-337 339 0
340 0
15 -339 -341 0
-15 339 -341 0
-15 -339 341 0
15 339 341 0
-25 341 0
101 342 0
102 342 0
103 342 0
104 342 0
319 342 0
335 342 0
337 342 0
-343 0
-15 342 -344 0
15 -342 -344 0
344 -342 -15 0
15 342 344 0
-26 -344 0
-345 337 -346 0
345 -337 -346 0
-345 -337 346 0
345 337 346 0
-23 -346 0
345 -319 -347 0
-345 319 -347 0
347 -345 -319 0
347 345 319 0
-24 347 0
-101 348 0
-102 348 0
-103 348 0
-104 348 0
-319 348 0
-337 348 0
349 0
345 -348 -350 0
-345 348 -350 0
-345 -348 350 0
345 348 350 0
-25 350 0
101 351 0
102 351 0
103 351 0
104 351 0
319 351 0
337 351 0
-352 0
-345 351 -353 0
345 -351 -353 0
353 -351 -345 0
345 351 353 0
-26 -353 0
-16 354 -355 0
16 -354 -355 0
-16 -354 355 0
16 354 355 0
-23 -355 0
16 -356 -357 0
-16 356 -357 0
357 -16 -356 0
357 16 356 0
-24 357 0
-354 358 0
-356 358 0
-359 358 0
-360 358 0
-361 358 0
-362 358 0
-363 358 0
-364 358 0
365 0
16 -358 -366 0
-16 358 -366 0
-16 -358 366 0
16 358 366 0
-25 366 0
354 367 0
356 367 0
359 367 0
360 367 0
361 367 0
362 367 0
363 367 0
364 367 0
-368 0
-16 367 -369 0
16 -367 -369 0
369 -367 -16 0
16 367 369 0
-26 -369 0
-370 356 -371 0
370 -356 -371 0
-370 -356 371 0
370 356 371 0
-23 -371 0
370 -359 -372 0
-370 359 -372 0
372 -370 -359 0
372 370 359 0
-24 372 0
-356 373 0
-359 373 0
-360 373 0
-361 373 0
-362 373 0
-363 373 0
-364 373 0
374 0
370 -373 -375 0
-370 373 -375 0
-370 -373 375 0
370 373 375 0
-25 375 0
356 376 0
359 376 0
360 376 0
361 376 0
362 376 0
363 376 0
364 376 0
-377 0
-370 376 -378 0
370 -376 -378 0
378 -376 -370 0
370 376 378 0
-26 -378 0
-379 359 -380 0
379 -359 -380 0
-379 -359 380 0
379 359 380 0
-23 -380 0
379 -360 -381 0
-379 360 -381 0
381 -379 -360 0
381 379 360 0
-24 381 0
-359 382 0
-360 382 0
-361 382 0
-362 382 0
-363 382 0
-364 382 0
383 0
379 -382 -384 0
-379 382 -384 0
-379 -382 384 0
379 382 384 0
-25 384 0
359 385 0
360 385 0
361 385 0
362 385 0
363 385 0
364 385 0
-386 0
-379 385 -387 0
379 -385 -387 0
387 -385 -379 0
379 385 387 0
-26 -387 0
-388 360 -389 0
388 -360 -389 0
-388 -360 389 0
388 360 389 0
-23 -389 0
388 -361 -390 0
-388 361 -390 0
390 -388 -361 0
390 388 361 0
-24 390 0
-360 391 0
-361 391 0
-362 391 0
-363 391 0
-364 391 0
360 361 362 363 364 -391 0
388 -391 -392 0
-388 391 -392 0
-388 -391 392 0
388 391 392 0
-25 392 0
360 393 0
361 393 0
362 393 0
363 393 0
364 393 0
-394 0
-388 393 -395 0
388 -393 -395 0
395 -393 -388 0
388 393 395 0
-26 -395 0
-396 361 -397 0
396 -361 -397 0
-396 -361 397 0
396 361 397 0
-23 -397 0
396 -362 -398 0
-396 362 -398 0
398 -396 -362 0
398 396 362 0
-24 398 0
-361 399 0
-362 399 0
-363 399 0
-364 399 0
361 362 363 364 -399 0
396 -399 -400 0
-396 399 -400 0
-396 -399 400 0
396 399 400 0
-25 400 0
361 401 0
362 401 0
363 401 0
364 401 0
-402 0
-396 401 -403 0
396 -401 -403 0
403 -401 -396 0
396 401 403 0
-26 -403 0
-404 362 -405 0
404 -362 -405 0
-404 -362 405 0
404 362 405 0
-23 -405 0
404 -363 -406 0
-404 363 -406 0
406 -404 -363 0
406 404 363 0
-24 406 0
404 -399 -407 0
-404 399 -407 0
-404 -399 407 0
404 399 407 0
-25 407 0
-404 401 -408 0
404 -401 -408 0
408 -401 -404 0
404 401 408 0
-26 -408 0
-409 363 -410 0
409 -363 -410 0
-409 -363 410 0
409 363 410 0
-23 -410 0
409 -364 -411 0
-409 364 -411 0
411 -409 -364 0
411 409 364 0
-24 411 0
409 -399 -412 0
-409 399 -412 0
-409 -399 412 0
409 399 412 0
-25 412 0
-409 401 -413 0
409 -401 -413 0
413 -401 -409 0
409 401 413 0
-26 -413 0
-414 364 -415 0
414 -364 -415 0
-414 -364 415 0
414 364 415 0
-23 -415 0
414 -361 -416 0
-414 361 -416 0
416 -414 -361 0
416 414 361 0
-24 416 0
414 -399 -417 0
-414 399 -417 0
-414 -399 417 0
414 399 417 0
-25 417 0
-414 401 -418 0
414 -401 -418 0
418 -401 -414 0
414 401 418 0
-26 -418 0
-17 419 -420 0
17 -419 -420 0
-17 -419 420 0
17 419 420 0
-23 -420 0
17 -421 -422 0
-17 421 -422 0
422 -17 -421 0
422 17 421 0
-24 422 0
-419 423 0
-421 423 0
-424 423 0
-425 423 0
-426 423 0
-427 423 0
428 0
17 -423 -429 0
-17 423 -429 0
-17 -423 429 0
17 423 429 0
-25 429 0
419 430 0
421 430 0
424 430 0
425 430 0
426 430 0
427 430 0
-431 0
-17 430 -432 0
17 -430 -432 0
432 -430 -17 0
17 430 432 0
-26 -432 0
-18 421 -433 0
18 -421 -433 0
-18 -421 433 0
18 421 433 0
-23 -433 0
18 -424 -434 0
-18 424 -434 0
434 -18 -424 0
434 18 424 0
-24 434 0
-421 435 0
-424 435 0
-425 435 0
-426 435 0
-427 435 0
421 424 425 426 427 -435 0
18 -435 -436 0
-18 435 -436 0
-18 -435 436 0
18 435 436 0
-25 436 0
421 437 0
424 437 0
425 437 0
426 437 0
427 437 0
-438 0
-18 437 -439 0
18 -437 -439 0
439 -437 -18 0
18 437 439 0
-26 -439 0
-19 424 -440 0
19 -424 -440 0
-19 -424 440 0
19 424 440 0
-23 -440 0
19 -425 -441 0
-19 425 -441 0
441 -19 -425 0
441 19 425 0
-24 441 0
19 -435 -442 0
-19 435 -442 0
-19 -435 442 0
19 435 442 0
-25 442 0
-19 437 -443 0
19 -437 -443 0
443 -437 -19 0
19 437 443 0
-26 -443 0
-444 425 -445 0
444 -425 -445 0
-444 -425 445 0
444 425 445 0
-23 -445 0
444 -426 -446 0
-444 426 -446 0
446 -444 -426 0
446 444 426 0
-24 446 0
444 -435 -447 0
-444 435 -447 0
-444 -435 447 0
444 435 447 0
-25 447 0
-444 437 -448 0
444 -437 -448 0
448 -437 -444 0
444 437 448 0
-26 -448 0
-449 426 -450 0
449 -426 -450 0
-449 -426 450 0
449 426 450 0
-23 -450 0
449 -427 -451 0
-449 427 -451 0
451 -449 -427 0
451 449 427 0
-24 451 0
449 -435 -452 0
-449 435 -452 0
-449 -435 452 0
449 435 452 0
-25 452 0
-449 437 -453 0
449 -437 -453 0
453 -437 -449 0
449 437 453 0
-26 -453 0
-454 427 -455 0
454 -427 -455 0
-454 -427 455 0
454 427 455 0
-23 -455 0
454 -421 -456 0
-454 421 -456 0
456 -454 -421 0
456 454 421 0
-24 456 0
454 -435 -457 0
-454 435 -457 0
-454 -435 457 0
454 435 457 0
-25 457 0
-454 437 -458 0
454 -437 -458 0
458 -437 -454 0
454 437 458 0
-26 -458 0
-20 459 -460 0
20 -459 -460 0
-20 -459 460 0
20 459 460 0
-23 -460 0
20 -461 -462 0
-20 461 -462 0
462 -20 -461 0
462 20 461 0
-24 462 0
-46 463 0
-47 463 0
-48 463 0
-49 463 0
-50 463 0
-459 463 0
-461 463 0
464 0
20 -463 -465 0
-20 463 -465 0
-20 -463 465 0
20 463 465 0
-25 465 0
46 466 0
47 466 0
48 466 0
49 466 0
50 466 0
459 466 0
461 466 0
-467 0
-20 466 -468 0
20 -466 -468 0
468 -466 -20 0
20 466 468 0
-26 -468 0
-469 461 -470 0
469 -461 -470 0
-469 -461 470 0
469 461 470 0
-23 -470 0
469 -46 -471 0
-469 46 -471 0
471 -469 -46 0
471 469 46 0
-24 471 0
-46 472 0
-47 472 0
-48 472 0
-49 472 0
-50 472 0
-461 472 0
46 47 48 49 50 461 -472 0
469 -472 -473 0
-469 472 -473 0
-469 -472 473 0
469 472 473 0
-25 473 0
46 474 0
47 474 0
48 474 0
49 474 0
50 474 0
461 474 0
-475 0
-469 474 -476 0
469 -474 -476 0
476 -474 -469 0
469 474 476 0
-26 -476 0
-21 477 -478 0
21 -477 -478 0
-21 -477 478 0
21 477 478 0
-23 -478 0
21 -479 -480 0
-21 479 -480 0
480 -21 -479 0
480 21 479 0
-24 480 0
-151 481 0
-154 481 0
-477 481 0
-479 481 0
-482 481 0
151 154 477 479 482 -481 0
21 -481 -483 0
-21 481 -483 0
-21 -481 483 0
21 481 483 0
-25 483 0
151 484 0
154 484 0
477 484 0
479 484 0
482 484 0
-485 0
-21 484 -486 0
21 -484 -486 0
486 -484 -21 0
21 484 486 0
-26 -486 0
-487 479 -488 0
487 -479 -488 0
-487 -479 488 0
487 479 488 0
-23 -488 0
487 -482 -489 0
-487 482 -489 0
489 -487 -482 0
489 487 482 0
-24 489 0
-151 490 0
-154 490 0
-479 490 0
-482 490 0
151 154 479 482 -490 0
487 -490 -491 0
-487 490 -491 0
-487 -490 491 0
487 490 491 0
-25 491 0
151 492 0
154 492 0
479 492 0
482 492 0
-493 0
-487 492 -494 0
487 -492 -494 0
494 -492 -487 0
487 492 494 0
-26 -494 0
-495 482 -496 0
495 -482 -496 0
-495 -482 496 0
495 482 496 0
-23 -496 0
495 -151 -497 0
-495 151 -497 0
497 -495 -151 0
497 495 151 0
-24 497 0
-151 498 0
-154 498 0
-482 498 0
151 154 482 -498 0
495 -498 -499 0
-495 498 -499 0
-495 -498 499 0
495 498 499 0
-25 499 0
151 500 0
154 500 0
482 500 0
-151 -154 -482 -500 0
-495 500 -501 0
495 -500 -501 0
501 -500 -495 0
495 500 501 0
-26 -501 0
-22 502 -503 0
22 -502 -503 0
-22 -502 503 0
22 502 503 0
-23 -503 0
22 -504 -505 0
-22 504 -505 0
505 -22 -504 0
505 22 504 0
-24 505 0
-421 506 0
-424 506 0
-425 506 0
-426 506 0
-427 506 0
-502 506 0
-504 506 0
507 0
22 -506 -508 0
-22 506 -508 0
-22 -506 508 0
22 506 508 0
-25 508 0
421 509 0
424 509 0
425 509 0
426 509 0
427 509 0
502 509 0
504 509 0
-510 0
-22 509 -511 0
22 -509 -511 0
511 -509 -22 0
22 509 511 0
-26 -511 0
-512 504 -513 0
512 -504 -513 0
-512 -504 513 0
512 504 513 0
-23 -513 0
512 -424 -514 0
-512 424 -514 0
514 -512 -424 0
514 512 424 0
-24 514 0
-421 515 0
-424 515 0
-425 515 0
-426 515 0
-427 515 0
-504 515 0
516 0
512 -515 -517 0
-512 515 -517 0
-512 -515 517 0
512 515 517 0
-25 517 0
421 518 0
424 518 0
425 518 0
426 518 0
427 518 0
504 518 0
-519 0
-512 518 -520 0
512 -518 -520 0
520 -518 -512 0
512 518 520 0
-26 -520 0
27 -521 0
-521 -29 0
-521 -41 0
-521 -43 0
46 -521 0
-521 -47 0
48 -521 0
-521 -49 0
-521 -50 0
95 -521 0
97 -521 0
-521 -100 0
101 -521 0
102 -521 0
-521 -103 0
104 -521 0
149 -521 0
151 -521 0
-521 -154 0
166 -521 0
-521 -168 0
-521 -171 0
-521 -172 0
173 -521 0
-521 -203 0
-521 -205 0
-521 -208 0
209 -521 0
-521 -236 0
-521 -238 0
-521 -241 0
242 -521 0
273 -521 0
-521 -275 0
-521 -278 0
298 -521 0
-521 -300 0
303 -521 0
317 -521 0
319 -521 0
335 -521 0
-521 -337 0
-521 -354 0
-521 -356 0
-521 -359 0
360 -521 0
361 -521 0
362 -521 0
-521 -363 0
-521 -364 0
419 -521 0
421 -521 0
-521 -424 0
-521 -425 0
426 -521 0
427 -521 0
459 -521 0
461 -521 0
477 -521 0
-521 -479 0
-521 -482 0
502 -521 0
-521 -504 0
521 0
-522 0
-523 0
-524 0
-525 0
-526 0
-527 0
-528 0
-529 0
